20
19	116	167	52	22
37	185	446	11	27
18	486	500	11	46
24	47	433	96	28
14	410	179	18	90
38	249	210	2	47
49	61	365	18	68
27	379	410	97	44
9	350	505	57	97
45	105	416	68	99
50	374	427	30	32
30	479	520	83	61
20	51	539	38	30
27	308	159	35	0
41	346	636	29	90
10	241	323	95	59
25	84	346	58	5
14	408	533	57	97
6	486	222	25	16
2	201	490	96	45
